3 3 2
30 1 29 0 20 1 83 2 72 0 38 1 69 0 49 1 37 0 50 2 6 1 94 0 53 2 36 1 92 0 37 2 87 0 11 2 33 0 39 2 62 0 91 1 36 0 37 2 27 1 78 0 43 1 20 2 6 0 80 1 87 
30 0 66 2 80 0 17 2 70 1 11 0 1 2 69 0 69 1 22 2 84 1 56 2 19 0 85 1 8 2 9 1 17 0 8 1 77 0 84 2 58 1 13 0 34 1 51 2 67 0 48 1 25 2 1 0 25 2 99 0 83 
30 1 70 2 32 1 88 2 1 1 43 0 17 2 27 0 79 1 41 2 91 0 1 1 55 0 53 1 32 2 64 1 13 0 66 2 26 0 8 1 42 2 27 0 95 1 19 2 13 0 58 1 21 0 57 1 49 0 46 2 34 

-------------
